c random clauses
p cnf 11 16
-11 -10 -9 -8 -3 -1 6 7 0
-11 -10 -7 -5 -2 1 4 6 0
-11 -9 -6 -4 1 3 5 7 0
-11 -8 -5 -3 -2 -1 6 10 0
-11 -7 -6 -3 -2 -1 5 9 0
-11 -6 -4 -2 3 5 8 9 0
-10 -9 -8 -5 1 3 7 11 0
-10 -9 -3 -1 2 7 8 11 0
-10 -8 -6 -4 -3 -2 -1 11 0
-10 -7 -1 2 3 4 6 11 0
-9 -6 -5 -3 1 4 7 8 0
-9 -1 3 4 5 6 7 11 0
-8 -7 -6 -4 -3 1 2 10 0
-8 -7 -4 -2 3 6 9 11 0
-8 -5 -1 2 3 4 6 11 0
-4 -3 1 6 7 8 9 11 0
